TC_ILP/arf_1.5.lp
Minimize
M1 + M2
Subject To
x0,3 + x0,4 + x0,5 + x0,6 + x0,7 + x0,8 + x0,9 + x0,10 + x0,11 + x0,12 + x0,13 + x0,14 + x0,15 = 1
x1,3 + x1,4 + x1,5 + x1,6 + x1,7 + x1,8 + x1,9 + x1,10 + x1,11 + x1,12 + x1,13 + x1,14 + x1,15 = 1
x2,10 + x2,11 + x2,12 + x2,13 + x2,14 + x2,15 = 1
x3,10 + x3,11 + x3,12 + x3,13 + x3,14 + x3,15 = 1
x4,10 + x4,11 + x4,12 + x4,13 + x4,14 + x4,15 = 1
x5,10 + x5,11 + x5,12 + x5,13 + x5,14 + x5,15 = 1
x6,3 + x6,4 + x6,5 + x6,6 + x6,7 + x6,8 + x6,9 + x6,10 + x6,11 + x6,12 + x6,13 + x6,14 + x6,15 = 1
x7,3 + x7,4 + x7,5 + x7,6 + x7,7 + x7,8 + x7,9 + x7,10 + x7,11 + x7,12 + x7,13 + x7,14 + x7,15 = 1
x8,2 + x8,3 + x8,4 + x8,5 + x8,6 + x8,7 + x8,8 + x8,9 + x8,10 + x8,11 + x8,12 + x8,13 + x8,14 = 1
x9,9 + x9,10 + x9,11 + x9,12 + x9,13 + x9,14 = 1
x10,9 + x10,10 + x10,11 + x10,12 + x10,13 + x10,14 = 1
x11,2 + x11,3 + x11,4 + x11,5 + x11,6 + x11,7 + x11,8 + x11,9 + x11,10 + x11,11 + x11,12 + x11,13 + x11,14 = 1
x12,8 + x12,9 + x12,10 + x12,11 + x12,12 + x12,13 = 1
x13,8 + x13,9 + x13,10 + x13,11 + x13,12 + x13,13 = 1
x14,6 + x14,7 + x14,8 + x14,9 + x14,10 + x14,11 = 1
x15,6 + x15,7 + x15,8 + x15,9 + x15,10 + x15,11 = 1
x16,6 + x16,7 + x16,8 + x16,9 + x16,10 + x16,11 = 1
x17,6 + x17,7 + x17,8 + x17,9 + x17,10 + x17,11 = 1
x18,5 + x18,6 + x18,7 + x18,8 + x18,9 + x18,10 = 1
x19,5 + x19,6 + x19,7 + x19,8 + x19,9 + x19,10 = 1
x20,3 + x20,4 + x20,5 + x20,6 + x20,7 + x20,8 = 1
x21,3 + x21,4 + x21,5 + x21,6 + x21,7 + x21,8 = 1
x22,3 + x22,4 + x22,5 + x22,6 + x22,7 + x22,8 = 1
x23,3 + x23,4 + x23,5 + x23,6 + x23,7 + x23,8 = 1
x24,2 + x24,3 + x24,4 + x24,5 + x24,6 + x24,7 = 1
x25,2 + x25,3 + x25,4 + x25,5 + x25,6 + x25,7 = 1
x26,1 + x26,2 + x26,3 + x26,4 + x26,5 + x26,6 = 1
x27,1 + x27,2 + x27,3 + x27,4 + x27,5 + x27,6 = 1
x26,1 + x27,1 - M2 <= 0
x8,2 + x11,2 + x24,2 + x25,2 + x26,2 + x27,2 - M2 <= 0
x8,3 + x11,3 + x24,3 + x25,3 + x26,3 + x27,3 - M2 <= 0
x0,3 + x0,2 + x1,3 + x1,2 + x6,3 + x6,2 + x7,3 + x7,2 + x20,3 + x20,2 + x21,3 + x21,2 + x22,3 + x22,2 + x23,3 + x23,2 - M1 <= 0
x8,4 + x11,4 + x24,4 + x25,4 + x26,4 + x27,4 - M2 <= 0
x0,4 + x0,3 + x1,4 + x1,3 + x6,4 + x6,3 + x7,4 + x7,3 + x20,4 + x20,3 + x21,4 + x21,3 + x22,4 + x22,3 + x23,4 + x23,3 - M1 <= 0
x8,5 + x11,5 + x18,5 + x19,5 + x24,5 + x25,5 + x26,5 + x27,5 - M2 <= 0
x0,5 + x0,4 + x1,5 + x1,4 + x6,5 + x6,4 + x7,5 + x7,4 + x20,5 + x20,4 + x21,5 + x21,4 + x22,5 + x22,4 + x23,5 + x23,4 - M1 <= 0
x8,6 + x11,6 + x18,6 + x19,6 + x24,6 + x25,6 + x26,6 + x27,6 - M2 <= 0
x0,6 + x0,5 + x1,6 + x1,5 + x6,6 + x6,5 + x7,6 + x7,5 + x14,6 + x14,5 + x15,6 + x15,5 + x16,6 + x16,5 + x17,6 + x17,5 + x20,6 + x20,5 + x21,6 + x21,5 + x22,6 + x22,5 + x23,6 + x23,5 - M1 <= 0
x8,7 + x11,7 + x18,7 + x19,7 + x24,7 + x25,7 - M2 <= 0
x0,7 + x0,6 + x1,7 + x1,6 + x6,7 + x6,6 + x7,7 + x7,6 + x14,7 + x14,6 + x15,7 + x15,6 + x16,7 + x16,6 + x17,7 + x17,6 + x20,7 + x20,6 + x21,7 + x21,6 + x22,7 + x22,6 + x23,7 + x23,6 - M1 <= 0
x8,8 + x11,8 + x12,8 + x13,8 + x18,8 + x19,8 - M2 <= 0
x0,8 + x0,7 + x1,8 + x1,7 + x6,8 + x6,7 + x7,8 + x7,7 + x14,8 + x14,7 + x15,8 + x15,7 + x16,8 + x16,7 + x17,8 + x17,7 + x20,8 + x20,7 + x21,8 + x21,7 + x22,8 + x22,7 + x23,8 + x23,7 - M1 <= 0
x8,9 + x9,9 + x10,9 + x11,9 + x12,9 + x13,9 + x18,9 + x19,9 - M2 <= 0
x0,9 + x0,8 + x1,9 + x1,8 + x6,9 + x6,8 + x7,9 + x7,8 + x14,9 + x14,8 + x15,9 + x15,8 + x16,9 + x16,8 + x17,9 + x17,8 + x20,9 + x20,8 + x21,9 + x21,8 + x22,9 + x22,8 + x23,9 + x23,8 - M1 <= 0
x8,10 + x9,10 + x10,10 + x11,10 + x12,10 + x13,10 + x18,10 + x19,10 - M2 <= 0
x0,10 + x0,9 + x1,10 + x1,9 + x2,10 + x2,9 + x3,10 + x3,9 + x4,10 + x4,9 + x5,10 + x5,9 + x6,10 + x6,9 + x7,10 + x7,9 + x14,10 + x14,9 + x15,10 + x15,9 + x16,10 + x16,9 + x17,10 + x17,9 - M1 <= 0
x8,11 + x9,11 + x10,11 + x11,11 + x12,11 + x13,11 - M2 <= 0
x0,11 + x0,10 + x1,11 + x1,10 + x2,11 + x2,10 + x3,11 + x3,10 + x4,11 + x4,10 + x5,11 + x5,10 + x6,11 + x6,10 + x7,11 + x7,10 + x14,11 + x14,10 + x15,11 + x15,10 + x16,11 + x16,10 + x17,11 + x17,10 - M1 <= 0
x8,12 + x9,12 + x10,12 + x11,12 + x12,12 + x13,12 - M2 <= 0
x0,12 + x0,11 + x1,12 + x1,11 + x2,12 + x2,11 + x3,12 + x3,11 + x4,12 + x4,11 + x5,12 + x5,11 + x6,12 + x6,11 + x7,12 + x7,11 + x14,12 + x14,11 + x15,12 + x15,11 + x16,12 + x16,11 + x17,12 + x17,11 - M1 <= 0
x8,13 + x9,13 + x10,13 + x11,13 + x12,13 + x13,13 - M2 <= 0
x0,13 + x0,12 + x1,13 + x1,12 + x2,13 + x2,12 + x3,13 + x3,12 + x4,13 + x4,12 + x5,13 + x5,12 + x6,13 + x6,12 + x7,13 + x7,12 - M1 <= 0
x8,14 + x9,14 + x10,14 + x11,14 - M2 <= 0
x0,14 + x0,13 + x1,14 + x1,13 + x2,14 + x2,13 + x3,14 + x3,13 + x4,14 + x4,13 + x5,14 + x5,13 + x6,14 + x6,13 + x7,14 + x7,13 - M1 <= 0
x0,15 + x0,14 + x1,15 + x1,14 + x2,15 + x2,14 + x3,15 + x3,14 + x4,15 + x4,14 + x5,15 + x5,14 + x6,15 + x6,14 + x7,15 + x7,14 - M1 <= 0
x0,16 + x0,15 + x1,16 + x1,15 + x2,16 + x2,15 + x3,16 + x3,15 + x4,16 + x4,15 + x5,16 + x5,15 + x6,16 + x6,15 + x7,16 + x7,15 - M1 <= 0
2 x8,2 + 3 x8,3 + 4 x8,4 + 5 x8,5 + 6 x8,6 + 7 x8,7 + 8 x8,8 + 9 x8,9 + 10 x8,10 + 11 x8,11 + 12 x8,12 + 13 x8,13 + 14 x8,14 - 3 x0,3 - 4 x0,4 - 5 x0,5 - 6 x0,6 - 7 x0,7 - 8 x0,8 - 9 x0,9 - 10 x0,10 - 11 x0,11 - 12 x0,12 - 13 x0,13 - 14 x0,14 - 15 x0,15 <= -1
2 x8,2 + 3 x8,3 + 4 x8,4 + 5 x8,5 + 6 x8,6 + 7 x8,7 + 8 x8,8 + 9 x8,9 + 10 x8,10 + 11 x8,11 + 12 x8,12 + 13 x8,13 + 14 x8,14 - 3 x1,3 - 4 x1,4 - 5 x1,5 - 6 x1,6 - 7 x1,7 - 8 x1,8 - 9 x1,9 - 10 x1,10 - 11 x1,11 - 12 x1,12 - 13 x1,13 - 14 x1,14 - 15 x1,15 <= -1
9 x9,9 + 10 x9,10 + 11 x9,11 + 12 x9,12 + 13 x9,13 + 14 x9,14 - 10 x2,10 - 11 x2,11 - 12 x2,12 - 13 x2,13 - 14 x2,14 - 15 x2,15 <= -1
9 x9,9 + 10 x9,10 + 11 x9,11 + 12 x9,12 + 13 x9,13 + 14 x9,14 - 10 x3,10 - 11 x3,11 - 12 x3,12 - 13 x3,13 - 14 x3,14 - 15 x3,15 <= -1
9 x10,9 + 10 x10,10 + 11 x10,11 + 12 x10,12 + 13 x10,13 + 14 x10,14 - 10 x4,10 - 11 x4,11 - 12 x4,12 - 13 x4,13 - 14 x4,14 - 15 x4,15 <= -1
9 x10,9 + 10 x10,10 + 11 x10,11 + 12 x10,12 + 13 x10,13 + 14 x10,14 - 10 x5,10 - 11 x5,11 - 12 x5,12 - 13 x5,13 - 14 x5,14 - 15 x5,15 <= -1
2 x11,2 + 3 x11,3 + 4 x11,4 + 5 x11,5 + 6 x11,6 + 7 x11,7 + 8 x11,8 + 9 x11,9 + 10 x11,10 + 11 x11,11 + 12 x11,12 + 13 x11,13 + 14 x11,14 - 3 x6,3 - 4 x6,4 - 5 x6,5 - 6 x6,6 - 7 x6,7 - 8 x6,8 - 9 x6,9 - 10 x6,10 - 11 x6,11 - 12 x6,12 - 13 x6,13 - 14 x6,14 - 15 x6,15 <= -1
2 x11,2 + 3 x11,3 + 4 x11,4 + 5 x11,5 + 6 x11,6 + 7 x11,7 + 8 x11,8 + 9 x11,9 + 10 x11,10 + 11 x11,11 + 12 x11,12 + 13 x11,13 + 14 x11,14 - 3 x7,3 - 4 x7,4 - 5 x7,5 - 6 x7,6 - 7 x7,7 - 8 x7,8 - 9 x7,9 - 10 x7,10 - 11 x7,11 - 12 x7,12 - 13 x7,13 - 14 x7,14 - 15 x7,15 <= -1
8 x12,8 + 9 x12,9 + 10 x12,10 + 11 x12,11 + 12 x12,12 + 13 x12,13 - 9 x9,9 - 10 x9,10 - 11 x9,11 - 12 x9,12 - 13 x9,13 - 14 x9,14 <= -1
8 x13,8 + 9 x13,9 + 10 x13,10 + 11 x13,11 + 12 x13,12 + 13 x13,13 - 9 x10,9 - 10 x10,10 - 11 x10,11 - 12 x10,12 - 13 x10,13 - 14 x10,14 <= -1
6 x14,6 + 7 x14,7 + 8 x14,8 + 9 x14,9 + 10 x14,10 + 11 x14,11 - 8 x12,8 - 9 x12,9 - 10 x12,10 - 11 x12,11 - 12 x12,12 - 13 x12,13 <= -2
6 x15,6 + 7 x15,7 + 8 x15,8 + 9 x15,9 + 10 x15,10 + 11 x15,11 - 8 x13,8 - 9 x13,9 - 10 x13,10 - 11 x13,11 - 12 x13,12 - 13 x13,13 <= -2
6 x16,6 + 7 x16,7 + 8 x16,8 + 9 x16,9 + 10 x16,10 + 11 x16,11 - 8 x12,8 - 9 x12,9 - 10 x12,10 - 11 x12,11 - 12 x12,12 - 13 x12,13 <= -2
6 x17,6 + 7 x17,7 + 8 x17,8 + 9 x17,9 + 10 x17,10 + 11 x17,11 - 8 x13,8 - 9 x13,9 - 10 x13,10 - 11 x13,11 - 12 x13,12 - 13 x13,13 <= -2
5 x18,5 + 6 x18,6 + 7 x18,7 + 8 x18,8 + 9 x18,9 + 10 x18,10 - 6 x14,6 - 7 x14,7 - 8 x14,8 - 9 x14,9 - 10 x14,10 - 11 x14,11 <= -1
5 x18,5 + 6 x18,6 + 7 x18,7 + 8 x18,8 + 9 x18,9 + 10 x18,10 - 6 x15,6 - 7 x15,7 - 8 x15,8 - 9 x15,9 - 10 x15,10 - 11 x15,11 <= -1
5 x19,5 + 6 x19,6 + 7 x19,7 + 8 x19,8 + 9 x19,9 + 10 x19,10 - 6 x16,6 - 7 x16,7 - 8 x16,8 - 9 x16,9 - 10 x16,10 - 11 x16,11 <= -1
5 x19,5 + 6 x19,6 + 7 x19,7 + 8 x19,8 + 9 x19,9 + 10 x19,10 - 6 x17,6 - 7 x17,7 - 8 x17,8 - 9 x17,9 - 10 x17,10 - 11 x17,11 <= -1
3 x20,3 + 4 x20,4 + 5 x20,5 + 6 x20,6 + 7 x20,7 + 8 x20,8 - 5 x18,5 - 6 x18,6 - 7 x18,7 - 8 x18,8 - 9 x18,9 - 10 x18,10 <= -2
3 x21,3 + 4 x21,4 + 5 x21,5 + 6 x21,6 + 7 x21,7 + 8 x21,8 - 5 x19,5 - 6 x19,6 - 7 x19,7 - 8 x19,8 - 9 x19,9 - 10 x19,10 <= -2
3 x22,3 + 4 x22,4 + 5 x22,5 + 6 x22,6 + 7 x22,7 + 8 x22,8 - 5 x18,5 - 6 x18,6 - 7 x18,7 - 8 x18,8 - 9 x18,9 - 10 x18,10 <= -2
3 x23,3 + 4 x23,4 + 5 x23,5 + 6 x23,6 + 7 x23,7 + 8 x23,8 - 5 x19,5 - 6 x19,6 - 7 x19,7 - 8 x19,8 - 9 x19,9 - 10 x19,10 <= -2
2 x24,2 + 3 x24,3 + 4 x24,4 + 5 x24,5 + 6 x24,6 + 7 x24,7 - 3 x20,3 - 4 x20,4 - 5 x20,5 - 6 x20,6 - 7 x20,7 - 8 x20,8 <= -1
2 x24,2 + 3 x24,3 + 4 x24,4 + 5 x24,5 + 6 x24,6 + 7 x24,7 - 3 x21,3 - 4 x21,4 - 5 x21,5 - 6 x21,6 - 7 x21,7 - 8 x21,8 <= -1
2 x25,2 + 3 x25,3 + 4 x25,4 + 5 x25,5 + 6 x25,6 + 7 x25,7 - 3 x22,3 - 4 x22,4 - 5 x22,5 - 6 x22,6 - 7 x22,7 - 8 x22,8 <= -1
2 x25,2 + 3 x25,3 + 4 x25,4 + 5 x25,5 + 6 x25,6 + 7 x25,7 - 3 x23,3 - 4 x23,4 - 5 x23,5 - 6 x23,6 - 7 x23,7 - 8 x23,8 <= -1
1 x26,1 + 2 x26,2 + 3 x26,3 + 4 x26,4 + 5 x26,5 + 6 x26,6 - 2 x8,2 - 3 x8,3 - 4 x8,4 - 5 x8,5 - 6 x8,6 - 7 x8,7 - 8 x8,8 - 9 x8,9 - 10 x8,10 - 11 x8,11 - 12 x8,12 - 13 x8,13 - 14 x8,14 <= -1
1 x26,1 + 2 x26,2 + 3 x26,3 + 4 x26,4 + 5 x26,5 + 6 x26,6 - 2 x24,2 - 3 x24,3 - 4 x24,4 - 5 x24,5 - 6 x24,6 - 7 x24,7 <= -1
1 x27,1 + 2 x27,2 + 3 x27,3 + 4 x27,4 + 5 x27,5 + 6 x27,6 - 2 x11,2 - 3 x11,3 - 4 x11,4 - 5 x11,5 - 6 x11,6 - 7 x11,7 - 8 x11,8 - 9 x11,9 - 10 x11,10 - 11 x11,11 - 12 x11,12 - 13 x11,13 - 14 x11,14 <= -1
1 x27,1 + 2 x27,2 + 3 x27,3 + 4 x27,4 + 5 x27,5 + 6 x27,6 - 2 x25,2 - 3 x25,3 - 4 x25,4 - 5 x25,5 - 6 x25,6 - 7 x25,7 <= -1
Bounds
0 <= x0,3 <= 1
0 <= x0,4 <= 1
0 <= x0,5 <= 1
0 <= x0,6 <= 1
0 <= x0,7 <= 1
0 <= x0,8 <= 1
0 <= x0,9 <= 1
0 <= x0,10 <= 1
0 <= x0,11 <= 1
0 <= x0,12 <= 1
0 <= x0,13 <= 1
0 <= x0,14 <= 1
0 <= x0,15 <= 1
0 <= x1,3 <= 1
0 <= x1,4 <= 1
0 <= x1,5 <= 1
0 <= x1,6 <= 1
0 <= x1,7 <= 1
0 <= x1,8 <= 1
0 <= x1,9 <= 1
0 <= x1,10 <= 1
0 <= x1,11 <= 1
0 <= x1,12 <= 1
0 <= x1,13 <= 1
0 <= x1,14 <= 1
0 <= x1,15 <= 1
0 <= x2,10 <= 1
0 <= x2,11 <= 1
0 <= x2,12 <= 1
0 <= x2,13 <= 1
0 <= x2,14 <= 1
0 <= x2,15 <= 1
0 <= x3,10 <= 1
0 <= x3,11 <= 1
0 <= x3,12 <= 1
0 <= x3,13 <= 1
0 <= x3,14 <= 1
0 <= x3,15 <= 1
0 <= x4,10 <= 1
0 <= x4,11 <= 1
0 <= x4,12 <= 1
0 <= x4,13 <= 1
0 <= x4,14 <= 1
0 <= x4,15 <= 1
0 <= x5,10 <= 1
0 <= x5,11 <= 1
0 <= x5,12 <= 1
0 <= x5,13 <= 1
0 <= x5,14 <= 1
0 <= x5,15 <= 1
0 <= x6,3 <= 1
0 <= x6,4 <= 1
0 <= x6,5 <= 1
0 <= x6,6 <= 1
0 <= x6,7 <= 1
0 <= x6,8 <= 1
0 <= x6,9 <= 1
0 <= x6,10 <= 1
0 <= x6,11 <= 1
0 <= x6,12 <= 1
0 <= x6,13 <= 1
0 <= x6,14 <= 1
0 <= x6,15 <= 1
0 <= x7,3 <= 1
0 <= x7,4 <= 1
0 <= x7,5 <= 1
0 <= x7,6 <= 1
0 <= x7,7 <= 1
0 <= x7,8 <= 1
0 <= x7,9 <= 1
0 <= x7,10 <= 1
0 <= x7,11 <= 1
0 <= x7,12 <= 1
0 <= x7,13 <= 1
0 <= x7,14 <= 1
0 <= x7,15 <= 1
0 <= x8,2 <= 1
0 <= x8,3 <= 1
0 <= x8,4 <= 1
0 <= x8,5 <= 1
0 <= x8,6 <= 1
0 <= x8,7 <= 1
0 <= x8,8 <= 1
0 <= x8,9 <= 1
0 <= x8,10 <= 1
0 <= x8,11 <= 1
0 <= x8,12 <= 1
0 <= x8,13 <= 1
0 <= x8,14 <= 1
0 <= x9,9 <= 1
0 <= x9,10 <= 1
0 <= x9,11 <= 1
0 <= x9,12 <= 1
0 <= x9,13 <= 1
0 <= x9,14 <= 1
0 <= x10,9 <= 1
0 <= x10,10 <= 1
0 <= x10,11 <= 1
0 <= x10,12 <= 1
0 <= x10,13 <= 1
0 <= x10,14 <= 1
0 <= x11,2 <= 1
0 <= x11,3 <= 1
0 <= x11,4 <= 1
0 <= x11,5 <= 1
0 <= x11,6 <= 1
0 <= x11,7 <= 1
0 <= x11,8 <= 1
0 <= x11,9 <= 1
0 <= x11,10 <= 1
0 <= x11,11 <= 1
0 <= x11,12 <= 1
0 <= x11,13 <= 1
0 <= x11,14 <= 1
0 <= x12,8 <= 1
0 <= x12,9 <= 1
0 <= x12,10 <= 1
0 <= x12,11 <= 1
0 <= x12,12 <= 1
0 <= x12,13 <= 1
0 <= x13,8 <= 1
0 <= x13,9 <= 1
0 <= x13,10 <= 1
0 <= x13,11 <= 1
0 <= x13,12 <= 1
0 <= x13,13 <= 1
0 <= x14,6 <= 1
0 <= x14,7 <= 1
0 <= x14,8 <= 1
0 <= x14,9 <= 1
0 <= x14,10 <= 1
0 <= x14,11 <= 1
0 <= x15,6 <= 1
0 <= x15,7 <= 1
0 <= x15,8 <= 1
0 <= x15,9 <= 1
0 <= x15,10 <= 1
0 <= x15,11 <= 1
0 <= x16,6 <= 1
0 <= x16,7 <= 1
0 <= x16,8 <= 1
0 <= x16,9 <= 1
0 <= x16,10 <= 1
0 <= x16,11 <= 1
0 <= x17,6 <= 1
0 <= x17,7 <= 1
0 <= x17,8 <= 1
0 <= x17,9 <= 1
0 <= x17,10 <= 1
0 <= x17,11 <= 1
0 <= x18,5 <= 1
0 <= x18,6 <= 1
0 <= x18,7 <= 1
0 <= x18,8 <= 1
0 <= x18,9 <= 1
0 <= x18,10 <= 1
0 <= x19,5 <= 1
0 <= x19,6 <= 1
0 <= x19,7 <= 1
0 <= x19,8 <= 1
0 <= x19,9 <= 1
0 <= x19,10 <= 1
0 <= x20,3 <= 1
0 <= x20,4 <= 1
0 <= x20,5 <= 1
0 <= x20,6 <= 1
0 <= x20,7 <= 1
0 <= x20,8 <= 1
0 <= x21,3 <= 1
0 <= x21,4 <= 1
0 <= x21,5 <= 1
0 <= x21,6 <= 1
0 <= x21,7 <= 1
0 <= x21,8 <= 1
0 <= x22,3 <= 1
0 <= x22,4 <= 1
0 <= x22,5 <= 1
0 <= x22,6 <= 1
0 <= x22,7 <= 1
0 <= x22,8 <= 1
0 <= x23,3 <= 1
0 <= x23,4 <= 1
0 <= x23,5 <= 1
0 <= x23,6 <= 1
0 <= x23,7 <= 1
0 <= x23,8 <= 1
0 <= x24,2 <= 1
0 <= x24,3 <= 1
0 <= x24,4 <= 1
0 <= x24,5 <= 1
0 <= x24,6 <= 1
0 <= x24,7 <= 1
0 <= x25,2 <= 1
0 <= x25,3 <= 1
0 <= x25,4 <= 1
0 <= x25,5 <= 1
0 <= x25,6 <= 1
0 <= x25,7 <= 1
0 <= x26,1 <= 1
0 <= x26,2 <= 1
0 <= x26,3 <= 1
0 <= x26,4 <= 1
0 <= x26,5 <= 1
0 <= x26,6 <= 1
0 <= x27,1 <= 1
0 <= x27,2 <= 1
0 <= x27,3 <= 1
0 <= x27,4 <= 1
0 <= x27,5 <= 1
0 <= x27,6 <= 1
M1 >= 1
M2 >= 1
Generals
x0,3
x0,4
x0,5
x0,6
x0,7
x0,8
x0,9
x0,10
x0,11
x0,12
x0,13
x0,14
x0,15
x1,3
x1,4
x1,5
x1,6
x1,7
x1,8
x1,9
x1,10
x1,11
x1,12
x1,13
x1,14
x1,15
x2,10
x2,11
x2,12
x2,13
x2,14
x2,15
x3,10
x3,11
x3,12
x3,13
x3,14
x3,15
x4,10
x4,11
x4,12
x4,13
x4,14
x4,15
x5,10
x5,11
x5,12
x5,13
x5,14
x5,15
x6,3
x6,4
x6,5
x6,6
x6,7
x6,8
x6,9
x6,10
x6,11
x6,12
x6,13
x6,14
x6,15
x7,3
x7,4
x7,5
x7,6
x7,7
x7,8
x7,9
x7,10
x7,11
x7,12
x7,13
x7,14
x7,15
x8,2
x8,3
x8,4
x8,5
x8,6
x8,7
x8,8
x8,9
x8,10
x8,11
x8,12
x8,13
x8,14
x9,9
x9,10
x9,11
x9,12
x9,13
x9,14
x10,9
x10,10
x10,11
x10,12
x10,13
x10,14
x11,2
x11,3
x11,4
x11,5
x11,6
x11,7
x11,8
x11,9
x11,10
x11,11
x11,12
x11,13
x11,14
x12,8
x12,9
x12,10
x12,11
x12,12
x12,13
x13,8
x13,9
x13,10
x13,11
x13,12
x13,13
x14,6
x14,7
x14,8
x14,9
x14,10
x14,11
x15,6
x15,7
x15,8
x15,9
x15,10
x15,11
x16,6
x16,7
x16,8
x16,9
x16,10
x16,11
x17,6
x17,7
x17,8
x17,9
x17,10
x17,11
x18,5
x18,6
x18,7
x18,8
x18,9
x18,10
x19,5
x19,6
x19,7
x19,8
x19,9
x19,10
x20,3
x20,4
x20,5
x20,6
x20,7
x20,8
x21,3
x21,4
x21,5
x21,6
x21,7
x21,8
x22,3
x22,4
x22,5
x22,6
x22,7
x22,8
x23,3
x23,4
x23,5
x23,6
x23,7
x23,8
x24,2
x24,3
x24,4
x24,5
x24,6
x24,7
x25,2
x25,3
x25,4
x25,5
x25,6
x25,7
x26,1
x26,2
x26,3
x26,4
x26,5
x26,6
x27,1
x27,2
x27,3
x27,4
x27,5
x27,6
M1
M2
End
